40,96
40,68
3
4
5
6
7
8
9
10
11
12
13
14
41,42
15
16
17
18
29,40,68
19
20
21
22
23
7,76,102
43,98
26
27
28
32
33
30
35
36
37
38
39
40
2,116
0,25,46,83
44
45
47
7,76
53
50,67
54
56
57
58
60
61
62
63
95,114
65
68
64
66
115,118
72
67,88
74
75
44,52
78
79
80
81
82
104
44,79
85
86
87
89
90
91
92
93
3,68
94
95
97
31,48,69,73,103
99
51,59
1
100
33,121
21,36
105
106
107
108
109
49,77,127
111
110,123
49,84,127
70,77
18,97
101
112
113
72,122
114
7,51
39,78
34,72
117
119
120
128
40,71
121
122
51,55
123
124
125
126
24
